NAME: rat783_392_391_0
COMMENT: Rattled grid (Pulleyblank). FACILITY = 1, USER = 0
TYPE: TSP
DIMENSION: 783
EDGE_WEIGHT_TYPE: EUC_2D
NODE_COORD_SECTION:
1 13 6 1
2 49 6 1
3 105 6 1
4 239 6 1
5 110 7 1
6 270 7 1
7 53 8 0
8 131 8 1
9 88 9 1
10 97 9 1
11 244 9 1
12 78 10 1
13 254 10 0
14 174 11 0
15 10 13 1
16 200 13 1
17 29 14 0
18 62 14 1
19 123 14 1
20 141 15 0
21 201 15 0
22 167 17 0
23 39 18 1
24 219 18 0
25 14 19 1
26 200 19 0
27 204 19 0
28 220 19 0
29 100 20 0
30 127 20 0
31 151 21 0
32 188 21 0
33 88 22 1
34 231 23 1
35 167 24 1
36 140 25 0
37 26 28 1
38 253 30 0
39 101 33 0
40 270 33 0
41 44 35 1
42 181 35 0
43 245 35 0
44 211 37 1
45 30 38 1
46 54 38 0
47 69 38 1
48 116 38 1
49 7 39 1
50 159 39 0
51 189 39 1
52 13 40 0
53 73 40 0
54 175 40 1
55 213 40 1
56 2 41 0
57 25 41 0
58 77 41 1
59 142 41 0
60 222 41 1
61 143 42 0
62 165 45 0
63 94 46 1
64 125 46 0
65 67 49 0
66 237 49 1
67 46 51 1
68 150 53 1
69 200 53 1
70 38 55 1
71 132 55 1
72 179 55 0
73 228 55 0
74 107 56 0
75 243 56 0
76 82 57 1
77 113 57 0
78 207 58 1
79 261 58 0
80 37 59 0
81 51 59 1
82 163 59 0
83 71 60 1
84 255 60 1
85 140 62 0
86 154 62 0
87 248 62 1
88 8 63 0
89 104 63 1
90 208 63 1
91 222 64 0
92 180 65 0
93 196 65 1
94 68 66 1
95 96 68 1
96 232 68 0
97 24 69 0
98 84 69 1
99 138 70 1
100 40 71 0
101 267 72 0
102 121 73 0
103 180 73 1
104 217 75 1
105 120 76 0
106 259 78 1
107 58 79 0
108 120 80 1
109 250 80 0
110 20 81 1
111 59 81 0
112 107 82 1
113 218 82 0
114 246 83 0
115 31 86 0
116 98 89 0
117 15 90 0
118 140 90 0
119 226 91 1
120 75 92 1
121 154 92 1
122 240 93 1
123 20 94 0
124 160 94 1
125 0 95 1
126 149 95 0
127 45 96 0
128 113 97 0
129 177 97 0
130 185 97 0
131 204 97 0
132 200 98 1
133 89 99 1
134 260 99 0
135 262 99 0
136 60 101 0
137 89 101 1
138 136 101 0
139 17 103 0
140 110 103 0
141 190 104 0
142 240 104 0
143 90 105 0
144 164 105 0
145 221 106 1
146 3 107 1
147 24 107 1
148 231 107 0
149 254 107 1
150 154 109 0
151 63 110 1
152 77 110 0
153 47 111 0
154 181 111 0
155 31 114 0
156 60 115 1
157 126 117 0
158 207 117 1
159 170 118 1
160 36 119 1
161 81 120 0
162 61 121 1
163 111 121 1
164 140 121 1
165 144 121 1
166 217 121 1
167 188 122 0
168 230 122 1
169 119 124 1
170 237 127 1
171 266 128 1
172 17 129 1
173 151 129 1
174 220 129 1
175 42 130 0
176 103 130 1
177 252 131 1
178 210 133 1
179 99 134 1
180 20 135 0
181 249 135 1
182 137 137 1
183 170 137 0
184 59 138 1
185 0 139 0
186 20 139 1
187 76 140 0
188 174 140 1
189 195 140 1
190 121 141 1
191 194 141 1
192 212 141 0
193 267 141 0
194 248 142 0
195 46 146 1
196 52 146 1
197 182 146 0
198 100 147 1
199 259 147 1
200 109 148 1
201 170 149 1
202 78 151 0
203 200 151 0
204 70 152 1
205 31 154 1
206 120 154 0
207 226 155 0
208 82 156 0
209 140 156 1
210 158 156 1
211 138 157 0
212 137 159 1
213 171 159 0
214 240 160 0
215 2 161 1
216 13 161 1
217 113 161 0
218 255 163 1
219 141 164 1
220 201 165 1
221 175 166 1
222 60 167 1
223 232 167 0
224 84 168 0
225 124 168 0
226 170 169 1
227 58 170 0
228 190 171 0
229 187 173 0
230 36 174 0
231 46 174 0
232 107 174 0
233 116 174 1
234 269 174 1
235 3 175 0
236 14 175 0
237 158 178 0
238 249 178 1
239 21 179 0
240 95 179 1
241 213 180 1
242 11 181 0
243 76 181 0
244 179 181 1
245 224 182 0
246 28 184 1
247 236 184 1
248 51 186 1
249 60 186 1
250 119 186 1
251 148 187 0
252 218 187 0
253 140 188 1
254 266 188 1
255 30 190 1
256 76 191 0
257 163 191 0
258 94 192 1
259 103 193 1
260 188 193 0
261 228 193 1
262 152 194 0
263 193 197 1
264 246 197 1
265 252 197 0
266 1 198 1
267 73 198 1
268 86 198 0
269 125 198 0
270 7 199 1
271 206 199 1
272 207 199 0
273 44 201 1
274 55 201 0
275 158 201 0
276 30 203 0
277 25 204 1
278 44 204 1
279 231 204 1
280 260 204 0
281 120 207 0
282 175 207 0
283 185 207 0
284 228 207 0
285 265 209 1
286 68 210 1
287 166 212 1
288 191 212 1
289 15 215 1
290 109 215 1
291 82 216 1
292 130 217 1
293 97 218 1
294 37 219 0
295 147 219 1
296 238 219 1
297 243 219 0
298 219 220 0
299 68 221 0
300 113 221 0
301 171 222 0
302 23 223 0
303 130 223 1
304 243 224 0
305 6 225 0
306 86 225 0
307 106 225 0
308 193 226 0
309 224 226 0
310 186 227 1
311 145 228 0
312 160 228 0
313 14 229 0
314 258 231 1
315 270 231 1
316 97 232 0
317 47 233 0
318 155 233 0
319 58 235 0
320 210 235 0
321 119 237 1
322 130 238 0
323 67 239 1
324 220 239 1
325 80 240 1
326 152 240 0
327 56 242 1
328 30 243 0
329 254 243 0
330 140 244 0
331 230 244 1
332 92 246 0
333 117 246 0
334 220 246 1
335 50 248 0
336 145 249 0
337 194 250 1
338 184 251 1
339 71 252 1
340 175 252 1
341 250 252 1
342 226 253 0
343 15 255 1
344 36 255 1
345 120 256 1
346 83 257 1
347 104 257 1
348 170 257 1
349 208 258 1
350 99 259 0
351 162 259 0
352 9 260 0
353 82 260 0
354 152 260 1
355 253 260 0
356 21 261 0
357 267 261 0
358 44 262 0
359 16 263 0
360 141 264 0
361 210 264 1
362 220 264 1
363 9 268 0
364 175 268 1
365 79 270 0
366 50 271 0
367 267 271 1
368 196 272 0
369 239 272 0
370 113 273 0
371 68 274 1
372 127 274 0
373 187 275 0
374 243 276 1
375 140 277 1
376 89 278 0
377 108 278 1
378 219 279 1
379 229 279 1
380 150 280 1
381 160 280 0
382 32 281 0
383 178 282 0
384 11 283 0
385 200 283 1
386 156 284 1
387 30 285 1
388 201 285 0
389 58 289 1
390 23 290 1
391 130 290 0
392 67 291 1
393 100 291 0
394 257 291 0
395 3 292 1
396 237 292 1
397 46 293 0
398 221 294 1
399 246 296 0
400 181 297 0
401 28 299 1
402 178 299 0
403 200 299 1
404 266 299 0
405 73 300 1
406 266 300 0
407 39 301 0
408 108 301 0
409 109 301 1
410 115 301 1
411 137 301 1
412 215 301 1
413 259 302 1
414 188 304 1
415 190 304 0
416 167 307 1
417 133 308 0
418 143 309 0
419 126 310 1
420 94 312 1
421 238 312 1
422 60 315 0
423 14 316 1
424 85 316 1
425 41 317 1
426 73 317 0
427 221 318 0
428 245 318 1
429 6 319 1
430 78 319 0
431 118 319 0
432 183 319 0
433 67 320 0
434 152 321 0
435 126 323 1
436 6 324 0
437 156 324 0
438 55 325 0
439 113 325 1
440 208 325 0
441 137 326 1
442 248 326 0
443 46 328 1
444 266 329 1
445 17 330 1
446 177 330 0
447 218 330 0
448 149 331 1
449 83 333 1
450 193 333 0
451 231 333 1
452 24 334 0
453 31 335 0
454 223 336 1
455 66 337 1
456 90 337 1
457 102 337 1
458 26 339 0
459 166 339 0
460 77 340 1
461 258 340 1
462 268 344 0
463 63 345 1
464 140 346 0
465 198 346 0
466 30 348 1
467 113 348 0
468 220 348 0
469 130 349 0
470 133 349 0
471 238 349 1
472 5 350 0
473 80 350 1
474 179 350 1
475 200 350 0
476 150 352 0
477 97 354 0
478 223 354 0
479 253 354 1
480 181 356 0
481 246 356 1
482 16 358 1
483 103 359 0
484 30 360 0
485 40 360 1
486 58 360 0
487 169 360 0
488 200 361 1
489 180 362 0
490 266 362 0
491 100 365 0
492 64 366 0
493 187 366 0
494 146 367 1
495 80 368 0
496 159 368 0
497 161 368 0
498 220 368 0
499 1 369 0
500 103 369 0
501 115 373 0
502 210 373 0
503 248 374 0
504 259 374 1
505 131 375 0
506 35 376 0
507 122 376 1
508 56 378 1
509 210 378 1
510 238 378 0
511 15 379 0
512 50 379 1
513 85 379 1
514 182 379 1
515 94 381 1
516 266 383 0
517 44 384 1
518 74 384 1
519 80 384 1
520 191 384 0
521 130 385 1
522 169 385 1
523 258 385 0
524 177 389 1
525 210 391 0
526 13 392 1
527 160 392 0
528 209 392 0
529 102 393 0
530 30 394 0
531 67 395 1
532 227 397 1
533 4 398 1
534 35 398 1
535 118 398 0
536 123 398 1
537 205 399 1
538 250 399 0
539 60 400 0
540 68 400 1
541 131 400 1
542 141 400 0
543 166 400 0
544 212 400 1
545 230 400 0
546 245 400 0
547 71 401 0
548 12 404 0
549 240 404 1
550 251 404 0
551 27 405 1
552 92 406 1
553 183 406 0
554 38 410 0
555 266 410 0
556 127 411 1
557 83 412 1
558 152 413 1
559 192 413 1
560 7 415 1
561 55 416 1
562 42 418 1
563 107 418 1
564 114 419 1
565 150 419 1
566 105 420 1
567 230 420 0
568 13 421 1
569 56 421 0
570 146 421 1
571 174 421 0
572 185 421 0
573 194 421 1
574 241 421 0
575 164 422 1
576 9 423 0
577 141 423 0
578 96 424 0
579 43 425 0
580 25 431 0
581 201 431 0
582 230 432 0
583 257 432 1
584 132 434 0
585 263 434 0
586 33 435 0
587 119 435 1
588 86 436 0
589 178 436 0
590 64 437 0
591 129 437 1
592 231 437 1
593 216 438 1
594 32 439 1
595 239 439 0
596 11 440 1
597 46 440 1
598 52 440 0
599 73 440 0
600 140 442 0
601 145 442 0
602 259 442 0
603 119 443 1
604 207 443 1
605 162 444 1
606 215 445 0
607 106 447 1
608 245 447 1
609 123 448 1
610 180 450 1
611 30 451 0
612 61 451 1
613 77 453 0
614 151 453 1
615 200 453 1
616 222 453 0
617 99 455 1
618 182 456 1
619 83 457 0
620 265 458 1
621 112 459 1
622 127 459 0
623 264 459 0
624 8 460 0
625 255 460 1
626 25 462 1
627 58 462 1
628 105 462 1
629 200 462 1
630 141 463 1
631 165 464 1
632 197 464 0
633 153 465 1
634 66 466 1
635 242 466 1
636 135 467 0
637 218 467 1
638 12 468 0
639 174 468 1
640 9 469 0
641 79 469 0
642 188 469 0
643 239 475 0
644 80 476 0
645 48 478 1
646 140 479 0
647 221 480 0
648 32 481 1
649 99 481 0
650 186 481 1
651 133 483 1
652 30 484 1
653 154 484 1
654 164 485 1
655 57 486 0
656 249 486 0
657 96 487 1
658 250 487 1
659 27 488 0
660 70 489 0
661 108 489 1
662 174 489 1
663 237 489 1
664 198 491 1
665 10 492 0
666 123 492 1
667 207 492 0
668 210 493 1
669 120 494 1
670 224 495 1
671 40 498 1
672 10 499 1
673 187 499 0
674 208 499 0
675 76 500 0
676 214 500 1
677 262 500 0
678 29 501 1
679 48 501 0
680 63 501 0
681 90 501 0
682 262 501 1
683 10 503 1
684 112 504 1
685 56 506 0
686 135 506 0
687 246 508 1
688 30 509 0
689 155 509 1
690 67 510 1
691 86 510 1
692 90 512 0
693 171 513 1
694 226 513 1
695 127 517 1
696 233 518 0
697 2 519 1
698 82 519 0
699 121 519 1
700 154 519 0
701 160 519 0
702 208 519 0
703 231 519 0
704 1 520 1
705 40 520 1
706 58 520 0
707 103 520 1
708 200 520 1
709 28 521 0
710 143 521 0
711 252 521 1
712 260 521 0
713 95 525 1
714 253 525 1
715 230 527 0
716 198 528 0
717 243 528 0
718 42 533 1
719 109 533 1
720 117 533 1
721 130 534 0
722 76 535 1
723 188 536 1
724 216 536 1
725 14 538 0
726 142 538 1
727 167 539 0
728 233 539 0
729 263 539 0
730 180 540 0
731 180 541 0
732 64 542 1
733 96 543 1
734 15 544 0
735 39 544 0
736 52 544 0
737 107 545 0
738 9 546 0
739 72 546 1
740 143 546 0
741 193 546 0
742 208 547 0
743 68 548 0
744 247 549 1
745 47 550 1
746 183 552 0
747 22 553 0
748 138 553 0
749 157 553 1
750 167 553 1
751 228 553 0
752 213 555 0
753 252 557 0
754 118 558 0
755 121 558 0
756 207 559 1
757 84 560 1
758 70 561 1
759 83 562 1
760 50 564 0
761 30 565 0
762 157 565 1
763 171 565 0
764 215 565 1
765 50 566 1
766 141 568 1
767 260 569 1
768 94 570 0
769 8 571 0
770 169 571 1
771 251 574 1
772 38 576 1
773 130 577 0
774 132 577 0
775 240 578 0
776 76 579 0
777 114 579 1
778 12 580 1
779 105 580 0
780 184 580 1
781 199 580 1
782 229 580 0
783 231 580 0
EOF